set P := x1 x2 x3 x4 x5 x6 x7 x8 x9;
param:      a1  a2  a3  c     u  :=
 x1          1   0  0   300   4
 x2          0   1  0   160   8
 x3          0   0  1   360   3
 x4          1   0  0   220   8
 x5          0   1  0   130   13
 x6          0   0  1   280   10
 x7          1   0  0   100   22
 x8          0   1  0   80   20
 x9          0   0  1   140   18   ;

param b := 30;
